instances/p2/p2_10_5-2.dzn
Alphabet = {A,C,G,T};
ns = 10;
nc = 4;
neighbours = [| I(A),I(T),I(G),Null | I(A),I(T),I(A),I(G) | I(A),I(T),I(A),Null | I(T),Null,Null,Null | I(A),I(C),I(G),I(T) | I(G),I(G),I(A),Null | I(A),I(T),I(C),Null | I(T),I(C),Null,Null | I(A),I(C),I(A),I(A) | I(T),Null,Null,Null |];
