instances/p2/p2_10_5-2.txt
{
	"num_strings": 10,
	"alphabet": "ACGT",
	"strings": [
		"ATG",
		"ATAG",
		"ATA",
		"T",
		"ACGT",
		"GGA",
		"ATC",
		"TC",
		"ACAA",
		"T"
	],
	"str_length":[3,4,3,1,4,3,3,2,4,1]
}